f:28517022
solution:
159 44 73 140 79 81 191 31 90 101 3 22 187 62 103 131 171 166 146 32 95 199 116 20 107 5 16 54 161 179 17 56 165 74 91 160 194 10 110 14 43 78 49 123 119 13 66 29 121 139 33 46 72 21 96 42 193 136 164 83 87 157 76 34 181 92 176 24 126 57 147 183 118 88 12 80 143 19 2 41 185 11 130 154 188 25 170 192 39 152 94 134 127 99 1 162 184 132 68 18 113 27 172 0 189 109 135 59 182 112 144 69 55 169 37 85 47 167 196 155 137 114 45 61 89 60 145 151 93 36 6 197 124 158 198 178 168 63 50 67 142 77 173 65 23 153 26 111 186 120 133 35 98 100 15 149 115 48 148 75 102 128 9 125 108 104 28 86 117 51 163 175 82 150 97 138 64 141 58 84 180 30 70 7 53 156 105 122 195 174 4 106 177 71 38 129 190 8 40 52 
